B=4;
D=1;
P=7;
S=7;
demands = [1 2 2 1 1 5 3 ];
capacities = [7 6 7 10 4 8 5 ];
dist_start = [4 7 8 6 4 6 7 ];
dist = [10 2 3 8 1 10 4 7 1 7 3 7 2 9 8 10 3 1 3 4 8 6 10 3 3 9 10 8 4 7 2 3 10 4 2 10 5 8 9 5 6 1 4 7 2 1 7 4 3 ];
